Name: HA_Assistants
Courses: 5
Rooms: 5
Days: 3
Periods_per_day: 3
Curricula: 5
Constraints: 24

COURSES:
c0001 t001 1 1 130
c0002 t001 1 1 75
c0003 t001 1 1 117
c0004 t002 1 1 117
c0005 t002 1 1 117



ROOMS:
A	200
B	200
C	200
D	200
E	200


CURRICULA:
q000  1 c0001
q001  1 c0002
q002  1 c0003
q003  1 c0004
q004  1 c0005

UNAVAILABILITY_CONSTRAINTS:
c0001 0 1
c0001 0 2
c0001 1 0
c0001 1 1
c0001 1 2
c0001 2 0
c0001 2 1
c0001 2 2
c0002 0 1
c0002 0 2
c0002 1 0
c0002 1 1
c0002 1 2
c0002 2 0
c0002 2 1
c0002 2 2
c0003 0 1
c0003 0 2
c0003 1 0
c0003 1 1
c0003 1 2
c0003 2 0
c0003 2 1
c0003 2 2

END.